
Gurobi 11.0.3 (mac64[x86]) logging started Tue Apr 15 14:38:38 2025

Set parameter LogFile to value "Results/SanityCheck/try_7_big.log"
Set parameter TimeLimit to value 84600
Set parameter Method to value 2
Set parameter Crossover to value 0
Set parameter BarHomogeneous to value 1
Set parameter BarConvTol to value 1e-10
Gurobi Optimizer version 11.0.3 build v11.0.3rc0 (mac64[x86] - Darwin 23.4.0 23E214)

CPU model: Intel(R) Core(TM) i7-1060NG7 CPU @ 1.20GHz
Thread count: 4 physical cores, 8 logical processors, using up to 8 threads

Optimize a model with 1496320 rows, 1917920 columns and 7073808 nonzeros
Model fingerprint: 0x2a006eb6
Coefficient statistics:
  Matrix range     [2e-01, 1e+00]
  Objective range  [6e-05, 5e+00]
  Bounds range     [0e+00, 0e+00]
  RHS range        [1e-02, 1e+03]
Presolve removed 1227184 rows and 1422000 columns
Presolve time: 4.78s

Barrier solved model in 0 iterations and 4.78 seconds (2.63 work units)
Model is infeasible or unbounded

Gurobi 11.0.3 (mac64[x86]) logging started Tue Apr 15 14:40:48 2025

Set parameter LogFile to value "Results/SanityCheck/try_7_big.log"
Set parameter TimeLimit to value 84600
Set parameter Method to value 2
Set parameter Crossover to value 0
Set parameter BarHomogeneous to value 1
Set parameter BarConvTol to value 1e-10
Gurobi Optimizer version 11.0.3 build v11.0.3rc0 (mac64[x86] - Darwin 23.4.0 23E214)

CPU model: Intel(R) Core(TM) i7-1060NG7 CPU @ 1.20GHz
Thread count: 4 physical cores, 8 logical processors, using up to 8 threads

Optimize a model with 1496320 rows, 1917920 columns and 7073808 nonzeros
Model fingerprint: 0x9dc32ad9
Coefficient statistics:
  Matrix range     [2e-01, 1e+00]
  Objective range  [6e-05, 5e+00]
  Bounds range     [0e+00, 0e+00]
  RHS range        [1e-02, 1e+03]
Presolve removed 1231808 rows and 1423520 columns
Presolve time: 5.09s
Presolved: 264512 rows, 494496 columns, 1755744 nonzeros
Ordering time: 0.02s

Barrier statistics:
 AA' NZ     : 2.513e+04
 Factor NZ  : 1.001e+05 (roughly 7 MB of memory)
 Factor Ops : 2.132e+06 (less than 1 second per iteration)
 Threads    : 4

                  Objective                Residual
Iter       Primal          Dual         Primal    Dual     Compl     Time
   0   5.60497373e+05  7.08165192e+07  4.54e+02 6.31e+03  9.83e+05     5s
   1  -4.23334754e+05  9.56660664e+07  8.38e+01 4.44e+03  2.11e+05     5s
   2  -4.99936328e+05  5.90447091e+07  5.98e+00 5.53e+02  2.90e+04     5s
   3  -4.80209525e+05  1.76472499e+07  1.24e-13 5.62e+01  3.47e+03     5s
   4  -3.76810175e+05  3.63791134e+05  8.85e-14 2.27e+00  1.33e+02     5s
   5  -7.18780666e+04  8.35977204e+04  2.70e-11 4.04e-01  2.01e+01     5s
   6  -6.61487891e+03  4.91685448e+04  9.58e-12 1.10e-01  5.79e+00     5s
   7   2.72493289e+04  3.66843517e+04  1.45e-12 2.09e-02  9.99e-01     5s
   8   3.08437138e+04  3.36493934e+04  2.36e-12 6.19e-03  2.88e-01     5s
   9   3.18499583e+04  3.28034439e+04  3.00e-12 2.07e-03  9.38e-02     5s
  10   3.22358228e+04  3.26375243e+04  6.83e-12 1.21e-03  4.11e-02     5s
  11   3.23678614e+04  3.25241372e+04  1.21e-11 4.93e-04  1.50e-02     5s
  12   3.24374128e+04  3.24673695e+04  1.60e-11 8.94e-05  2.52e-03     5s
  13   3.24512563e+04  3.24621221e+04  3.78e-11 3.37e-05  8.59e-04     5s
  14   3.24577417e+04  3.24608584e+04  1.13e-10 1.86e-05  2.54e-04     5s
  15   3.24593273e+04  3.24598782e+04  2.57e-10 1.93e-06  4.13e-05     5s
  16   3.24594709e+04  3.24597726e+04  5.41e-10 1.92e-07  2.08e-05     5s
  17   3.24596734e+04  3.24597635e+04  1.62e-10 5.15e-08  6.18e-06     5s
  18   3.24597347e+04  3.24597598e+04  5.17e-11 1.71e-08  1.73e-06     5s
  19   3.24597543e+04  3.24597581e+04  5.09e-11 4.39e-08  2.59e-07     5s
  20   3.24597545e+04  3.24597579e+04  1.90e-09 5.57e-08  2.28e-07     5s
  21   3.24597556e+04  3.24597578e+04  2.59e-09 2.06e-09  1.51e-07     6s
  22   3.24597578e+04  3.24597578e+04  1.07e-10 1.06e-11  6.74e-10     6s
  23   3.24597578e+04  3.24597578e+04  3.15e-10 5.34e-09  5.16e-10     6s
  24   3.24597578e+04  3.24597578e+04  4.21e-11 1.84e-10  5.16e-13     6s

Barrier solved model in 24 iterations and 5.53 seconds (3.53 work units)
Optimal objective 3.24597578e+04

